instances/p1/p1_4_8-1.dzn
Alphabet = {A,C,G,T};
ns = 4;
nc = 8;
neighbours = [| I(C),I(T),I(A),I(A),I(C),I(A),I(C),I(C) | I(A),I(A),I(C),I(A),I(A),I(A),I(A),I(A) | I(A),I(A),I(A),I(C),I(A),I(C),I(A),I(A) | I(A),I(A),I(A),I(A),I(A),I(A),I(C),I(C) |];
