instances/p1/p1_4_8-1.txt
{
	"num_strings": 4,
	"alphabet": "ACGT",
	"strings": [
		"CTAACACC",
		"AACAAAAA",
		"AAACACAA",
		"AAAAAACC"
	],
	"str_length":[8,8,8,8]
}